\ This file was automatically generated by Zimpl
\ set ingredientes := {1, 2, 3};
\ set nutrientes := {1, 2, 3};
\ param perceNutrSoja[nutrientes] := <1> 0.002, <2> 0.5, <3> 0.08;
\ param perceNutrMilho[ingredientes] := <1> 0.01, <2> 0.09, <3> 0.02;
\ param perceNutrCana[ingredientes] := <1> 0.03, <2> 0.0, <3> 0.02;
\ param custoIngredKg[ingredientes] := <1> 15, <2> 20, <3> 8;
\ param minimoFabricadoKg := 1000;
\ var quantNutrSojaKg[nutrientes] >= 0;
\ var quantNutrMilhoKg[ingredientes] >= 0;
\ var quantNutrCanaKg[ingredientes] >= 0;
\ minimize custo :      (sum <n> in nutrientes : quantNutrSojaKg[n] * custoIngredKg[n]) +     (sum <n> in nutrientes : quantNut
\ rMilhoKg[n] * custoIngredKg[n]) +     (sum <n> in nutrientes : quantNutrCanaKg[n] * custoIngredKg[n]);
\ subto minimoProduzido :     (sum <n> in nutrientes : quantNutrSojaKg[n] * perceNutrSoja[n]) +     (sum <n> in nutrientes : qu
\ antNutrMilhoKg[n] * perceNutrMilho[n]) +     (sum <n> in nutrientes : quantNutrCanaKg[n] * perceNutrCana[n]) >= minimoFabrica
\ doKg;
\ subto maximoCalcio :     quantNutrSojaKg[1] * perceNutrSoja[1] + quantNutrMilhoKg[1] * perceNutrMilho[1] + quantNutrCanaKg[1]
\  * perceNutrCana[1] <= 0.012;
\ subto minimoCalcio :     quantNutrSojaKg[1] * perceNutrSoja[1] + quantNutrMilhoKg[1] * perceNutrMilho[1] + quantNutrCanaKg[1]
\  * perceNutrCana[1] >= 0.008;
\ subto minimoProteina :     quantNutrSojaKg[2] * perceNutrSoja[2] + quantNutrMilhoKg[2] * perceNutrMilho[2] + quantNutrCanaKg[
\ 2] * perceNutrCana[2] >= 0.22;
\ subto maximoCarboidrato :     quantNutrSojaKg[3] * perceNutrSoja[3] + quantNutrMilhoKg[3] * perceNutrMilho[3] + quantNutrCana
\ Kg[3] * perceNutrCana[3] <= 0.2;
\Problem name: file
Minimize
 custo:  +15 quantNutrSojaK@0 +20 quantNutrSojaK@1 +8 quantNutrSojaK@2 +15 quantNutrMilho@3 +20 quantNutrMilho@4 +8 quantNutrMilho@5
  +15 quantNutrCanaK@6 +20 quantNutrCanaK@7 +8 quantNutrCanaK@8
Subject to
 minimoProduzid@0:
  +0.02 quantNutrCanaK@8 +0.03 quantNutrCanaK@6 +0.02 quantNutrMilho@5 +0.09 quantNutrMilho@4 +0.01 quantNutrMilho@3 +0.08 quantNutrSojaK@2
  +0.5 quantNutrSojaK@1 +0.002 quantNutrSojaK@0 >= 1000
 maximoCalcio_1:
  +0.03 quantNutrCanaK@6 +0.01 quantNutrMilho@3 +0.002 quantNutrSojaK@0 <= 0.012
 minimoCalcio_1:
  +0.03 quantNutrCanaK@6 +0.01 quantNutrMilho@3 +0.002 quantNutrSojaK@0 >= 0.008
 minimoProteina_1:
  +0.09 quantNutrMilho@4 +0.5 quantNutrSojaK@1 >= 0.22
 maximoCarboidr@4:
  +0.02 quantNutrCanaK@8 +0.02 quantNutrMilho@5 +0.08 quantNutrSojaK@2 <= 0.2
Bounds
 0 <= quantNutrSojaK@0 <= +inf
 0 <= quantNutrSojaK@1 <= +inf
 0 <= quantNutrSojaK@2 <= +inf
 0 <= quantNutrMilho@3 <= +inf
 0 <= quantNutrMilho@4 <= +inf
 0 <= quantNutrMilho@5 <= +inf
 0 <= quantNutrCanaK@6 <= +inf
 0 <= quantNutrCanaK@7 <= +inf
 0 <= quantNutrCanaK@8 <= +inf
End
